p cnf 9984 50
5094 485 1
4506 6326 0
4416 9248 0
992 5421 0
6649 322 1
9237 5795 0
6457 8043 0
7815 2845 0
9446 4955 0
3422 9252 0
8791 1009 1
9359 5901 0
5667 1122 1
1598 1094 0
2007 8738 0
544 8574 0
5334 5715 0
2766 8882 0
3994 1367 1
9893 9984 0
2633 3299 0
7131 9433 0
5428 5682 0
6700 72 1
617 7874 0
5874 138 1
7720 3856 0
4419 7145 0
9794 7995 0
30 8196 1529 1
5997 6199 0
3116 3277 0
5908 97 1
5539 9719 0
5707 5242 0
8569 6107 0
5537 1122 1
931 1070 0
5726 6098 0
5487 3600 0
9772 6645 0
7513 7267 0
2081 1972 0
9943 9895 0
8058 3213 0
4303 9748 0
3764 9487 0
6536 1923 1
724 7029 0
3789 5674 0